c t wmc
c file mc2023_track2_161.cnf
p cnf 80 240
57 50 -34 0
-71 -21 73 0
-43 -62 -50 0
67 -41 -30 0
-4 60 50 0
-7 -25 1 0
-42 23 36 0
36 31 -25 0
-39 4 14 0
36 13 -74 0
-24 -22 8 0
2 -44 4 0
-27 32 63 0
-58 41 2 0
22 34 57 0
19 76 71 0
-7 -14 -72 0
59 -65 9 0
-1 59 32 0
49 -44 -39 0
-34 -40 56 0
-43 -69 76 0
-1 62 67 0
12 47 49 0
35 2 -22 0
13 8 31 0
-38 -61 16 0
53 -6 -32 0
46 61 31 0
-72 -6 -16 0
-46 -67 -35 0
-39 -50 -74 0
-32 -77 22 0
-14 62 24 0
23 -17 32 0
-15 -36 -23 0
72 18 14 0
79 33 -47 0
43 -27 -52 0
44 19 20 0
-4 -58 31 0
-19 -73 51 0
-75 -80 -37 0
-76 -23 -12 0
79 33 48 0
-69 -54 55 0
5 30 15 0
-68 -76 5 0
17 -20 -7 0
2 -30 -62 0
-48 23 -77 0
-69 33 -1 0
78 -9 -56 0
-76 -70 60 0
78 -66 27 0
-25 -37 -52 0
26 -57 -80 0
35 1 -18 0
44 -29 -43 0
60 -8 2 0
-66 -50 -44 0
-37 -11 -64 0
-43 -3 40 0
-46 13 -42 0
-71 -37 -44 0
-64 -31 -39 0
-80 45 -23 0
-43 28 19 0
29 -49 63 0
12 5 43 0
-6 -24 -65 0
-14 65 24 0
-7 22 -79 0
-77 45 24 0
72 -11 22 0
-3 -72 37 0
-3 22 -73 0
51 -63 12 0
-64 -26 70 0
-61 70 -45 0
-23 -10 -72 0
-45 29 67 0
17 -29 62 0
-60 21 30 0
46 9 26 0
-62 36 -18 0
38 30 -10 0
-20 5 -12 0
-3 -28 -76 0
75 -5 48 0
70 -64 25 0
-36 -47 52 0
-54 -58 -34 0
-3 -55 41 0
-15 72 -18 0
29 63 -7 0
33 21 -66 0
-52 19 -16 0
51 -32 -40 0
-57 51 24 0
66 -55 73 0
-34 -59 16 0
11 -72 78 0
2 27 -74 0
15 21 1 0
-42 -68 -46 0
26 -6 -48 0
-29 35 6 0
7 21 79 0
-69 -20 -57 0
77 -17 78 0
-40 -3 -72 0
-46 -16 -69 0
65 22 -36 0
-21 2 -33 0
52 -11 -36 0
32 55 13 0
-26 -43 10 0
-66 -80 29 0
-53 16 68 0
73 36 -55 0
38 30 -79 0
17 -66 -6 0
52 9 60 0
-45 -70 67 0
-62 12 -11 0
-58 64 8 0
-58 48 -31 0
-19 -23 -65 0
53 -41 57 0
74 -59 79 0
-76 34 -74 0
-58 -73 75 0
59 19 12 0
-28 24 67 0
-49 37 51 0
41 -56 -3 0
-47 35 -1 0
5 17 -39 0
-24 38 56 0
-29 78 -71 0
-54 41 -45 0
-20 70 42 0
-78 -25 9 0
21 -59 25 0
-80 27 5 0
-15 76 -4 0
54 -74 73 0
-51 -62 -11 0
-44 -12 60 0
-54 -75 49 0
-28 61 40 0
39 61 -65 0
-51 -17 -20 0
-23 -38 24 0
-10 -52 -45 0
77 22 50 0
-15 25 -77 0
-1 -63 13 0
-69 -58 -30 0
71 35 -18 0
34 -4 71 0
-41 -62 38 0
-7 66 -64 0
6 -18 -42 0
-55 15 53 0
14 11 48 0
-33 -13 -68 0
66 2 -61 0
-38 -68 -47 0
53 -28 -80 0
-39 63 59 0
-15 48 28 0
55 -44 48 0
47 -33 -58 0
25 33 71 0
-51 50 -20 0
-80 69 53 0
37 8 -13 0
-11 18 37 0
-63 -73 -56 0
75 74 50 0
70 -60 -27 0
-74 -52 -17 0
77 -74 -9 0
30 59 38 0
-75 10 -20 0
68 -4 -15 0
-56 13 27 0
27 39 -49 0
45 40 -68 0
60 -63 16 0
-1 54 -25 0
14 -8 -6 0
2 -27 -10 0
-65 -11 -79 0
-31 -64 -3 0
26 57 -48 0
-78 71 12 0
-8 9 -56 0
14 30 42 0
-49 79 -40 0
-75 -44 32 0
64 -46 10 0
-47 -34 43 0
65 16 -35 0
53 -29 28 0
57 53 -56 0
-33 -64 66 0
65 71 -42 0
-68 -34 16 0
75 63 -28 0
-77 -70 14 0
-41 31 80 0
-17 -55 61 0
-26 -49 10 0
68 -6 -42 0
41 -76 35 0
-13 9 60 0
55 8 57 0
-67 -58 19 0
70 28 31 0
-4 -3 10 0
18 46 -42 0
78 39 -54 0
-54 67 80 0
78 69 50 0
53 40 5 0
75 67 -46 0
61 -79 26 0
-20 32 5 0
8 -69 -73 0
38 7 9 0
-40 -26 -47 0
61 4 35 0
52 51 21 0
7 -54 -49 0
-59 -56 45 0
37 -18 19 0
47 21 -77 0
c p weight 33 0.48222463 0
c p weight -33 0.51777537 0
c p weight 77 0.37772312 0
c p weight -77 0.62227688 0
c p weight 1 1 0
c p weight -1 1 0
c p weight 2 1 0
c p weight -2 1 0
c p weight 3 1 0
c p weight -3 1 0
c p weight 4 1 0
c p weight -4 1 0
c p weight 5 1 0
c p weight -5 1 0
c p weight 6 1 0
c p weight -6 1 0
c p weight 7 1 0
c p weight -7 1 0
c p weight 8 1 0
c p weight -8 1 0
c p weight 9 1 0
c p weight -9 1 0
c p weight 10 1 0
c p weight -10 1 0
c p weight 11 1 0
c p weight -11 1 0
c p weight 12 1 0
c p weight -12 1 0
c p weight 13 1 0
c p weight -13 1 0
c p weight 14 1 0
c p weight -14 1 0
c p weight 15 1 0
c p weight -15 1 0
c p weight 16 1 0
c p weight -16 1 0
c p weight 17 1 0
c p weight -17 1 0
c p weight 18 1 0
c p weight -18 1 0
c p weight 19 1 0
c p weight -19 1 0
c p weight 20 1 0
c p weight -20 1 0
c p weight 21 1 0
c p weight -21 1 0
c p weight 22 1 0
c p weight -22 1 0
c p weight 23 1 0
c p weight -23 1 0
c p weight 24 1 0
c p weight -24 1 0
c p weight 25 1 0
c p weight -25 1 0
c p weight 26 1 0
c p weight -26 1 0
c p weight 27 1 0
c p weight -27 1 0
c p weight 28 1 0
c p weight -28 1 0
c p weight 29 1 0
c p weight -29 1 0
c p weight 30 1 0
c p weight -30 1 0
c p weight 31 1 0
c p weight -31 1 0
c p weight 32 1 0
c p weight -32 1 0
c p weight 34 1 0
c p weight -34 1 0
c p weight 35 1 0
c p weight -35 1 0
c p weight 36 1 0
c p weight -36 1 0
c p weight 37 1 0
c p weight -37 1 0
c p weight 38 1 0
c p weight -38 1 0
c p weight 39 1 0
c p weight -39 1 0
c p weight 40 1 0
c p weight -40 1 0
c p weight 41 1 0
c p weight -41 1 0
c p weight 42 1 0
c p weight -42 1 0
c p weight 43 1 0
c p weight -43 1 0
c p weight 44 1 0
c p weight -44 1 0
c p weight 45 1 0
c p weight -45 1 0
c p weight 46 1 0
c p weight -46 1 0
c p weight 47 1 0
c p weight -47 1 0
c p weight 48 1 0
c p weight -48 1 0
c p weight 49 1 0
c p weight -49 1 0
c p weight 50 1 0
c p weight -50 1 0
c p weight 51 1 0
c p weight -51 1 0
c p weight 52 1 0
c p weight -52 1 0
c p weight 53 1 0
c p weight -53 1 0
c p weight 54 1 0
c p weight -54 1 0
c p weight 55 1 0
c p weight -55 1 0
c p weight 56 1 0
c p weight -56 1 0
c p weight 57 1 0
c p weight -57 1 0
c p weight 58 1 0
c p weight -58 1 0
c p weight 59 1 0
c p weight -59 1 0
c p weight 60 1 0
c p weight -60 1 0
c p weight 61 1 0
c p weight -61 1 0
c p weight 62 1 0
c p weight -62 1 0
c p weight 63 1 0
c p weight -63 1 0
c p weight 64 1 0
c p weight -64 1 0
c p weight 65 1 0
c p weight -65 1 0
c p weight 66 1 0
c p weight -66 1 0
c p weight 67 1 0
c p weight -67 1 0
c p weight 68 1 0
c p weight -68 1 0
c p weight 69 1 0
c p weight -69 1 0
c p weight 70 1 0
c p weight -70 1 0
c p weight 71 1 0
c p weight -71 1 0
c p weight 72 1 0
c p weight -72 1 0
c p weight 73 1 0
c p weight -73 1 0
c p weight 74 1 0
c p weight -74 1 0
c p weight 75 1 0
c p weight -75 1 0
c p weight 76 1 0
c p weight -76 1 0
c p weight 78 1 0
c p weight -78 1 0
c p weight 79 1 0
c p weight -79 1 0
c p weight 80 1 0
c p weight -80 1 0
